17	4
25	20	31	29	
0	0	0	0	0	3	2	3	4	
6	9	1	4	0	3	5	14	15	
4	0	4	0	0	2	6	8	
1	9	0	5	0	3	7	12	17	
8	8	2	1	0	3	9	17	17	
175	3	5	0	0	3	10	11	17	
100	9	3	0	0	2	13	17	
150	3	3	0	0	2	10	17	
200	0	7	3	9	1	17	
200	0	0	4	0	1	17	
100	0	0	0	7	2	17	17	
200	0	0	0	1	1	17	
5	0	2	5	0	1	17	
2	3	0	3	0	1	17	
8	4	0	1	0	3	16	17	17	
6	2	3	0	0	1	17	
0	0	0	0	0	0	
